(set-info :smt-lib-version 2.6)
(set-logic LIA)
(set-info
  :source |
 Generated by PSyCO 0.1
 More info in N. P. Lopes and J. Monteiro. Weakest Precondition Synthesis for
 Compiler Optimizations, VMCAI'14.
|)
(set-info :category "industrial")
(set-info :status sat)
(declare-fun W_S1_V6 () Bool)
(declare-fun W_S1_V4 () Bool)
(declare-fun W_S1_V2 () Bool)
(declare-fun W_S1_V3 () Bool)
(declare-fun W_S1_V1 () Bool)
(declare-fun R_S1_V6 () Bool)
(declare-fun R_S1_V4 () Bool)
(declare-fun R_S1_V5 () Bool)
(declare-fun R_S1_V2 () Bool)
(declare-fun R_S1_V3 () Bool)
(declare-fun R_S1_V1 () Bool)
(declare-fun R_E2_V1 () Bool)
(declare-fun R_E1_V6 () Bool)
(declare-fun R_E1_V4 () Bool)
(declare-fun R_E1_V5 () Bool)
(declare-fun R_E1_V2 () Bool)
(declare-fun DISJ_W_S1_R_E1 () Bool)
(declare-fun DISJ_W_S1_R_S1 () Bool)
(declare-fun R_E2_V6 () Bool)
(declare-fun R_E2_V4 () Bool)
(declare-fun R_E2_V5 () Bool)
(declare-fun R_E2_V2 () Bool)
(declare-fun DISJ_W_S1_R_E2 () Bool)
(declare-fun W_S1_V5 () Bool)
(declare-fun R_E1_V3 () Bool)
(declare-fun R_E1_V1 () Bool)
(declare-fun R_E2_V3 () Bool)
(assert
 (let
 (($x62538
   (forall
    ((V2_0 Int) (V5_0 Int) 
     (V4_0 Int) (V6_0 Int) 
     (MW_S1_V1 Bool) (MW_S1_V3 Bool) 
     (MW_S1_V2 Bool) (MW_S1_V5 Bool) 
     (MW_S1_V4 Bool) (MW_S1_V6 Bool) 
     (S1_V1_!5249 Int) (S1_V1_!5255 Int) 
     (S1_V1_!5264 Int) (S1_V1_!5270 Int) 
     (S1_V3_!5250 Int) (S1_V3_!5256 Int) 
     (S1_V3_!5265 Int) (S1_V3_!5271 Int) 
     (S1_V2_!5251 Int) (S1_V2_!5257 Int) 
     (S1_V2_!5266 Int) (S1_V2_!5272 Int) 
     (E1_!5246 Int) (E1_!5261 Int) 
     (E1_!5263 Int) (S1_V5_!5252 Int) 
     (S1_V5_!5258 Int) (S1_V5_!5267 Int) 
     (S1_V5_!5273 Int) (E2_!5247 Int) 
     (E2_!5248 Int) (E2_!5262 Int) 
     (S1_V4_!5253 Int) (S1_V4_!5259 Int) 
     (S1_V4_!5268 Int) (S1_V4_!5274 Int) 
     (S1_V6_!5254 Int) (S1_V6_!5260 Int) 
     (S1_V6_!5269 Int) (S1_V6_!5275 Int))
    (let ((?x60953 (ite MW_S1_V6 S1_V6_!5275 V6_0)))
    (let ((?x61230 (ite MW_S1_V6 S1_V6_!5260 V6_0)))
    (let (($x62927 (= ?x61230 ?x60953)))
    (let ((?x60924 (ite MW_S1_V4 S1_V4_!5274 V4_0)))
    (let ((?x62674 (ite MW_S1_V4 S1_V4_!5259 V4_0)))
    (let (($x60915 (= ?x62674 ?x60924)))
    (let ((?x59853 (ite MW_S1_V5 S1_V5_!5273 V5_0)))
    (let ((?x61062 (ite MW_S1_V5 S1_V5_!5258 V5_0)))
    (let (($x60990 (= ?x61062 ?x59853)))
    (let ((?x61234 (ite MW_S1_V2 S1_V2_!5272 V2_0)))
    (let ((?x59988 (ite MW_S1_V2 S1_V2_!5257 V2_0)))
    (let (($x62774 (= ?x59988 ?x61234)))
    (let ((?x61395 (ite MW_S1_V3 S1_V3_!5271 E2_!5262)))
    (let ((?x62637 (ite MW_S1_V3 S1_V3_!5250 E2_!5248)))
    (let ((?x62911 (+ 1 ?x62637)))
    (let ((?x62350 (ite MW_S1_V3 S1_V3_!5256 ?x62911)))
    (let (($x61237 (= ?x62350 ?x61395)))
    (let ((?x60249 (ite MW_S1_V1 S1_V1_!5264 E1_!5263)))
    (let ((?x62798 (+ 1 ?x60249)))
    (let ((?x62339 (ite MW_S1_V1 S1_V1_!5270 ?x62798)))
    (let ((?x62715 (ite MW_S1_V1 S1_V1_!5255 E1_!5246)))
    (let (($x62389 (= ?x62715 ?x62339)))
    (let (($x61198 (and $x62389 $x61237 $x62774 $x60990 $x60915 $x62927)))
    (let ((?x60975 (+ (- 1) ?x60924)))
    (let (($x61134 (>= ?x61395 ?x60975)))
    (let ((?x61005 (+ (- 1) ?x61234)))
    (let (($x62945 (>= ?x62339 ?x61005)))
    (let ((?x62882 (ite MW_S1_V2 S1_V2_!5266 V2_0)))
    (let (($x62306 (<= ?x62882 ?x62798)))
    (let (($x62352 (not $x62306)))
    (let (($x61231 (<= V2_0 E1_!5263)))
    (let (($x62818 (not $x61231)))
    (let (($x62474 (<= V4_0 E2_!5262)))
    (let (($x62789 (not $x62474)))
    (let (($x61013 (<= V2_0 E1_!5261)))
    (let (($x60289 (not $x61013)))
    (let ((?x60290 (+ (- 1) ?x59988)))
    (let (($x59992 (>= ?x62715 ?x60290)))
    (let ((?x62922 (+ (- 1) ?x62674)))
    (let (($x61222 (>= ?x62350 ?x62922)))
    (let ((?x61493 (ite MW_S1_V4 S1_V4_!5253 V4_0)))
    (let (($x60135 (<= ?x61493 ?x62911)))
    (let (($x62799 (not $x60135)))
    (let (($x61126 (<= V4_0 E2_!5248)))
    (let (($x62819 (not $x61126)))
    (let (($x61216 (<= V2_0 E1_!5246)))
    (let (($x62264 (not $x61216)))
    (let (($x62583 (<= V4_0 E2_!5247)))
    (let (($x62374 (not $x62583)))
    (let
    (($x62332
      (and $x62374 $x62264 $x62819 $x62799 $x61222 $x59992 $x60289 $x62789
      $x62818 $x62352 $x62945 $x61134)))
    (let (($x62392 (not $x62332)))
    (let (($x61273 (not MW_S1_V6)))
    (let (($x62943 (or $x61273 W_S1_V6)))
    (let (($x62405 (not MW_S1_V4)))
    (let (($x62836 (or $x62405 W_S1_V4)))
    (let (($x61038 (not MW_S1_V2)))
    (let (($x61024 (or $x61038 W_S1_V2)))
    (let (($x62407 (not MW_S1_V3)))
    (let (($x61046 (or $x62407 W_S1_V3)))
    (let (($x62525 (not MW_S1_V1)))
    (let (($x61021 (or $x62525 W_S1_V1)))
    (let (($x61112 (= S1_V6_!5269 S1_V6_!5275)))
    (let ((?x62487 (ite MW_S1_V6 S1_V6_!5269 V6_0)))
    (let (($x62527 (= V6_0 ?x62487)))
    (let (($x207 (not R_S1_V6)))
    (let (($x61439 (or $x207 $x62527)))
    (let ((?x61323 (ite MW_S1_V4 S1_V4_!5268 V4_0)))
    (let (($x62254 (= V4_0 ?x61323)))
    (let (($x205 (not R_S1_V4)))
    (let (($x61066 (or $x205 $x62254)))
    (let ((?x62925 (ite MW_S1_V5 S1_V5_!5267 V5_0)))
    (let (($x61401 (= V5_0 ?x62925)))
    (let (($x203 (not R_S1_V5)))
    (let (($x62427 (or $x203 $x61401)))
    (let (($x60891 (= V2_0 ?x62882)))
    (let (($x201 (not R_S1_V2)))
    (let (($x59932 (or $x201 $x60891)))
    (let ((?x62524 (ite MW_S1_V3 S1_V3_!5265 E2_!5262)))
    (let (($x62814 (= E2_!5262 ?x62524)))
    (let (($x199 (not R_S1_V3)))
    (let (($x61200 (or $x199 $x62814)))
    (let (($x61425 (= E1_!5263 ?x62798)))
    (let (($x197 (not R_S1_V1)))
    (let (($x61028 (or $x197 $x61425)))
    (let (($x60131 (and $x61028 $x61200 $x59932 $x62427 $x61066 $x61439)))
    (let (($x61075 (not $x60131)))
    (let (($x62903 (or $x61075 $x61112)))
    (let (($x62816 (= S1_V6_!5260 S1_V6_!5275)))
    (let ((?x62591 (ite MW_S1_V6 S1_V6_!5254 V6_0)))
    (let (($x60901 (= ?x62591 ?x62487)))
    (let (($x61224 (or $x207 $x60901)))
    (let (($x62770 (= ?x61493 ?x61323)))
    (let (($x60925 (or $x205 $x62770)))
    (let ((?x60006 (ite MW_S1_V5 S1_V5_!5252 V5_0)))
    (let (($x61052 (= ?x60006 ?x62925)))
    (let (($x60237 (or $x203 $x61052)))
    (let ((?x60229 (ite MW_S1_V2 S1_V2_!5251 V2_0)))
    (let (($x62732 (= ?x60229 ?x62882)))
    (let (($x62472 (or $x201 $x62732)))
    (let ((?x62376 (+ (- 1) ?x62524)))
    (let (($x62866 (= ?x62637 ?x62376)))
    (let (($x61045 (or $x199 $x62866)))
    (let ((?x62847 (ite MW_S1_V1 S1_V1_!5249 E1_!5246)))
    (let (($x62290 (= ?x62847 ?x62798)))
    (let (($x62764 (or $x197 $x62290)))
    (let (($x60943 (and $x62764 $x61045 $x62472 $x60237 $x60925 $x61224)))
    (let (($x62686 (not $x60943)))
    (let (($x60881 (or $x62686 $x62816)))
    (let (($x59884 (= S1_V6_!5260 S1_V6_!5269)))
    (let (($x60944 (= ?x62591 V6_0)))
    (let (($x59984 (or $x207 $x60944)))
    (let (($x62859 (= ?x61493 V4_0)))
    (let (($x62334 (or $x205 $x62859)))
    (let (($x62520 (= ?x60006 V5_0)))
    (let (($x61239 (or $x203 $x62520)))
    (let (($x60137 (= ?x60229 V2_0)))
    (let (($x62253 (or $x201 $x60137)))
    (let ((?x61094 (+ (- 1) E2_!5262)))
    (let (($x62371 (= ?x62637 ?x61094)))
    (let (($x62868 (or $x199 $x62371)))
    (let (($x62698 (= ?x62847 E1_!5263)))
    (let (($x62415 (or $x197 $x62698)))
    (let (($x62667 (and $x62415 $x62868 $x62253 $x61239 $x62334 $x59984)))
    (let (($x62901 (not $x62667)))
    (let (($x62492 (or $x62901 $x59884)))
    (let (($x59940 (= S1_V6_!5260 S1_V6_!5254)))
    (let ((?x62917 (+ (- 1) E2_!5248)))
    (let (($x60187 (= ?x62637 ?x62917)))
    (let (($x62437 (or $x199 $x60187)))
    (let (($x60893 (= ?x62847 E1_!5246)))
    (let (($x60052 (or $x197 $x60893)))
    (let (($x62336 (and $x60052 $x62437 $x62253 $x61239 $x62334 $x59984)))
    (let (($x62833 (not $x62336)))
    (let (($x62797 (or $x62833 $x59940)))
    (let (($x62610 (= S1_V6_!5254 S1_V6_!5275)))
    (let (($x62343 (= E2_!5248 ?x62524)))
    (let (($x62824 (or $x199 $x62343)))
    (let (($x62690 (= E1_!5246 ?x62798)))
    (let (($x61259 (or $x197 $x62690)))
    (let (($x62589 (and $x61259 $x62824 $x59932 $x62427 $x61066 $x61439)))
    (let (($x61423 (not $x62589)))
    (let (($x62463 (or $x61423 $x62610)))
    (let (($x61186 (= S1_V6_!5254 S1_V6_!5269)))
    (let (($x61044 (= E2_!5248 E2_!5262)))
    (let (($x61050 (or $x199 $x61044)))
    (let (($x62552 (= E1_!5246 E1_!5263)))
    (let (($x60970 (or $x197 $x62552)))
    (let (($x62742 (and $x60970 $x61050)))
    (let (($x62923 (not $x62742)))
    (let (($x60149 (or $x62923 $x61186)))
    (let (($x62904 (= S1_V4_!5274 S1_V4_!5268)))
    (let (($x62705 (= ?x62487 V6_0)))
    (let (($x61473 (or $x207 $x62705)))
    (let (($x61017 (= ?x61323 V4_0)))
    (let (($x61202 (or $x205 $x61017)))
    (let (($x60099 (= ?x62925 V5_0)))
    (let (($x60890 (or $x203 $x60099)))
    (let (($x60074 (= ?x62882 V2_0)))
    (let (($x61238 (or $x201 $x60074)))
    (let (($x59897 (= ?x62524 E2_!5262)))
    (let (($x62500 (or $x199 $x59897)))
    (let ((?x62497 (+ (- 1) E1_!5263)))
    (let (($x61030 (= ?x60249 ?x62497)))
    (let (($x62429 (or $x197 $x61030)))
    (let (($x62398 (and $x62429 $x62500 $x61238 $x60890 $x61202 $x61473)))
    (let (($x61407 (not $x62398)))
    (let (($x59850 (or $x61407 $x62904)))
    (let (($x62792 (= S1_V4_!5274 S1_V4_!5259)))
    (let (($x62734 (= ?x62487 ?x62591)))
    (let (($x62733 (or $x207 $x62734)))
    (let (($x61246 (= ?x61323 ?x61493)))
    (let (($x62611 (or $x205 $x61246)))
    (let (($x61233 (= ?x62925 ?x60006)))
    (let (($x62446 (or $x203 $x61233)))
    (let (($x60979 (= ?x62882 ?x60229)))
    (let (($x62433 (or $x201 $x60979)))
    (let (($x62357 (= ?x62524 ?x62911)))
    (let (($x62395 (or $x199 $x62357)))
    (let ((?x62586 (+ (- 1) ?x62847)))
    (let (($x62778 (= ?x60249 ?x62586)))
    (let (($x62899 (or $x197 $x62778)))
    (let (($x61313 (and $x62899 $x62395 $x62433 $x62446 $x62611 $x62733)))
    (let (($x61055 (not $x61313)))
    (let (($x60018 (or $x61055 $x62792)))
    (let (($x60940 (= S1_V4_!5274 S1_V4_!5253)))
    (let (($x60923 (= ?x62524 E2_!5248)))
    (let (($x62399 (or $x199 $x60923)))
    (let ((?x62551 (+ (- 1) E1_!5246)))
    (let (($x62536 (= ?x60249 ?x62551)))
    (let (($x60000 (or $x197 $x62536)))
    (let (($x62505 (and $x60000 $x62399 $x61238 $x60890 $x61202 $x61473)))
    (let (($x62629 (not $x62505)))
    (let (($x61429 (or $x62629 $x60940)))
    (let (($x61080 (= S1_V4_!5259 S1_V4_!5268)))
    (let (($x62559 (or $x62901 $x61080)))
    (let (($x60191 (= S1_V4_!5253 S1_V4_!5268)))
    (let (($x62931 (or $x62923 $x60191)))
    (let (($x62811 (= S1_V4_!5253 S1_V4_!5259)))
    (let (($x61399 (= V6_0 ?x62591)))
    (let (($x59883 (or $x207 $x61399)))
    (let (($x62654 (= V4_0 ?x61493)))
    (let (($x62842 (or $x205 $x62654)))
    (let (($x62830 (= V5_0 ?x60006)))
    (let (($x62458 (or $x203 $x62830)))
    (let (($x62936 (= V2_0 ?x60229)))
    (let (($x62467 (or $x201 $x62936)))
    (let (($x60949 (= E2_!5248 ?x62911)))
    (let (($x62854 (or $x199 $x60949)))
    (let (($x62804 (= E1_!5246 ?x62847)))
    (let (($x62582 (or $x197 $x62804)))
    (let (($x60167 (and $x62582 $x62854 $x62467 $x62458 $x62842 $x59883)))
    (let (($x62293 (not $x60167)))
    (let (($x59913 (or $x62293 $x62811)))
    (let (($x61311 (= E2_!5262 E2_!5247)))
    (let (($x62260 (= E1_!5261 E1_!5246)))
    (let (($x128 (not R_E2_V1)))
    (let (($x62671 (or $x128 $x62260)))
    (let (($x62563 (not $x62671)))
    (let (($x60050 (or $x62563 $x61311)))
    (let (($x62717 (= E1_!5246 E1_!5261)))
    (let (($x62755 (or $x128 $x62717)))
    (let (($x60904 (not $x62755)))
    (let (($x62802 (or $x60904 $x61044)))
    (let (($x62612 (= E2_!5248 E2_!5247)))
    (let (($x61184 (= S1_V5_!5273 S1_V5_!5267)))
    (let (($x62344 (or $x61407 $x61184)))
    (let (($x61041 (= S1_V5_!5273 S1_V5_!5258)))
    (let (($x61381 (or $x61055 $x61041)))
    (let (($x61437 (= S1_V5_!5273 S1_V5_!5252)))
    (let (($x62688 (or $x62629 $x61437)))
    (let (($x60921 (= S1_V5_!5267 S1_V5_!5252)))
    (let (($x62801 (= E2_!5262 E2_!5248)))
    (let (($x61086 (or $x199 $x62801)))
    (let (($x60980 (= E1_!5263 E1_!5246)))
    (let (($x62935 (or $x197 $x60980)))
    (let (($x62495 (and $x62935 $x61086)))
    (let (($x61088 (not $x62495)))
    (let (($x62477 (or $x61088 $x60921)))
    (let (($x62892 (= S1_V5_!5258 S1_V5_!5267)))
    (let (($x62782 (or $x62901 $x62892)))
    (let (($x60939 (= S1_V5_!5258 S1_V5_!5252)))
    (let (($x62353 (or $x62833 $x60939)))
    (let (($x62385 (= E1_!5263 E1_!5261)))
    (let (($x60918 (= S1_V2_!5266 S1_V2_!5272)))
    (let (($x61096 (or $x61075 $x60918)))
    (let (($x62924 (= S1_V2_!5257 S1_V2_!5272)))
    (let (($x62919 (or $x62686 $x62924)))
    (let (($x61229 (= S1_V2_!5257 S1_V2_!5266)))
    (let (($x61016 (or $x62901 $x61229)))
    (let (($x60253 (= S1_V2_!5257 S1_V2_!5251)))
    (let (($x62807 (or $x62833 $x60253)))
    (let (($x59941 (= S1_V2_!5251 S1_V2_!5272)))
    (let (($x61265 (or $x61423 $x59941)))
    (let (($x61029 (= S1_V2_!5251 S1_V2_!5266)))
    (let (($x59998 (or $x62923 $x61029)))
    (let (($x62664 (= S1_V3_!5265 S1_V3_!5271)))
    (let (($x62722 (or $x61075 $x62664)))
    (let (($x62595 (= S1_V3_!5256 S1_V3_!5271)))
    (let (($x62581 (or $x62686 $x62595)))
    (let (($x62294 (= S1_V3_!5256 S1_V3_!5265)))
    (let (($x62758 (or $x62901 $x62294)))
    (let (($x62580 (= S1_V3_!5250 S1_V3_!5271)))
    (let (($x62528 (or $x61423 $x62580)))
    (let (($x61271 (= S1_V3_!5250 S1_V3_!5265)))
    (let (($x62725 (or $x62923 $x61271)))
    (let (($x62822 (= S1_V3_!5250 S1_V3_!5256)))
    (let (($x60968 (or $x62293 $x62822)))
    (let (($x62435 (= S1_V1_!5270 S1_V1_!5264)))
    (let (($x60020 (or $x61407 $x62435)))
    (let (($x62838 (= S1_V1_!5270 S1_V1_!5255)))
    (let (($x62666 (or $x61055 $x62838)))
    (let (($x60079 (= S1_V1_!5255 S1_V1_!5264)))
    (let (($x61190 (or $x62901 $x60079)))
    (let (($x61243 (= S1_V1_!5249 S1_V1_!5270)))
    (let (($x62328 (or $x61423 $x61243)))
    (let (($x59895 (= S1_V1_!5249 S1_V1_!5264)))
    (let (($x62285 (or $x62923 $x59895)))
    (let (($x61053 (= S1_V1_!5249 S1_V1_!5255)))
    (let (($x62737 (or $x62293 $x61053)))
    (let
    (($x61208
      (and $x62737 $x62285 $x62328 $x61190 $x62666 $x60020 $x60968 $x62725
      $x62528 $x62758 $x62581 $x62722 $x59998 $x61265 $x62807 $x61016 $x62919
      $x61096 $x62717 $x60980 $x62385 $x62353 $x62782 $x62477 $x62688 $x61381
      $x62344 $x62612 $x62802 $x60050 $x59913 $x62931 $x62559 $x61429 $x60018
      $x59850 $x60149 $x62463 $x62797 $x62492 $x60881 $x62903 $x61021 $x61046
      $x61024 $x62836 $x62943)))
    (let (($x62584 (not $x61208))) (or $x62584 $x62392 $x61198)))))))))))))))))))))))))))))))))))))))))))))))))))))))))))))))))))))))))))))))))))))))))))))))))))))))))))))))))))))))))))))))))))))))))))))))))))))))))))))))))))))))))))))))))))))))))))))))))))))))))))))))))))))))))))))))))))))))))))))))))))))))))))))))))))))))))))))))))))))))))))))
 (let (($x56 (and W_S1_V6 R_E1_V6)))
 (let (($x54 (and W_S1_V4 R_E1_V4)))
 (let (($x50 (and W_S1_V2 R_E1_V2)))
 (let (($x62769 (or $x50 R_E1_V5 $x54 $x56)))
 (let (($x60941 (not $x62769)))
 (let (($x60147 (= DISJ_W_S1_R_E1 $x60941)))
 (let (($x40 (and W_S1_V6 R_S1_V6)))
 (let (($x38 (and W_S1_V4 R_S1_V4)))
 (let (($x34 (and W_S1_V2 R_S1_V2)))
 (let (($x32 (and W_S1_V3 R_S1_V3)))
 (let (($x30 (and W_S1_V1 R_S1_V1)))
 (let (($x66 (or $x30 $x32 $x34 R_S1_V5 $x38 $x40)))
 (let (($x67 (not $x66)))
 (let (($x68 (= DISJ_W_S1_R_S1 $x67)))
 (let (($x24 (and W_S1_V6 R_E2_V6)))
 (let (($x21 (and W_S1_V4 R_E2_V4)))
 (let (($x16 (and W_S1_V2 R_E2_V2)))
 (let (($x10 (and W_S1_V1 R_E2_V1)))
 (let (($x60991 (or $x10 $x16 R_E2_V5 $x21 $x24)))
 (let (($x62775 (not $x60991)))
 (let (($x62603 (= DISJ_W_S1_R_E2 $x62775)))
 (let (($x115 (not R_E1_V3)))
 (let (($x113 (not R_E1_V1)))
 (let (($x130 (not R_E2_V3)))
 (and $x130 $x113 $x115 W_S1_V5 $x62603 $x68 $x60147 $x62538)))))))))))))))))))))))))))
(assert
 (let (($x59796 (not W_S1_V2)))
 (let (($x60948 (and $x59796 DISJ_W_S1_R_S1))) (not $x60948))))
(check-sat)
(exit)

